(set-logic ALL)
(set-option :produce-models true)
(declare-sort BoundSet 0)
(declare-sort UnboundSet 0)
(set-option :finite-model-find true)
(declare-fun Spent150HoursOn (BoundSet BoundSet) Bool)
(declare-fun Missed (BoundSet BoundSet) Bool)
(declare-fun Give (BoundSet BoundSet BoundSet) Bool)
(assert (not (=> (exists ((a BoundSet)) (exists ((b BoundSet)) (exists ((c BoundSet)) (and (Spent150HoursOn a b) (Missed a c))))) (exists ((g BoundSet)) (exists ((e BoundSet)) (exists ((f BoundSet)) (Give e f g)))))))
(check-sat)
(get-model)